\ENCODING=ISO-8859-1
\Problem name: ILOG.CPLEX

Minimize
 obj: 3 y1_1 + 7 y1_2 + 9 y1_3 + 6 y1_4 + 3 y2_1 + 7 y2_2 + 9 y2_3 + 6 y2_4
Subject To
 cons_1: 2 y1_1 + 4 y1_2 + 5 y1_3 + 3 y1_4 >= 7
 cons_2: 2 y2_1 + 4 y2_2 + 5 y2_3 + 3 y2_4 >= 8
Bounds
 0 <= y1_1 <= 1
 0 <= y1_2 <= 1
 0 <= y1_3 <= 1
 0 <= y1_4 <= 1
 0 <= y2_1 <= 1
 0 <= y2_2 <= 1
 0 <= y2_3 <= 1
 0 <= y2_4 <= 1
Binaries
 y1_1  y1_2  y1_3  y1_4  y2_1  y2_2  y2_3  y2_4 
End
